NAME : lc104.860012.tour
COMMENT : Cost = 0_860012
COMMENT : Found by LKH [Keld Helsgaun] Fri Sep 15 17:42:00 2017
TYPE : TOUR
DIMENSION : 115
TOUR_SECTION
1
6
4
8
9
12
10
7
5
3
2
76
107
115
14
18
20
17
16
19
29
24
27
31
23
22
109
58
56
55
54
57
59
61
60
41
47
44
42
112
91
88
87
84
83
85
86
89
90
92
108
99
97
96
95
93
105
94
98
101
100
13
15
103
11
110
68
66
63
75
73
62
65
69
67
70
113
82
79
77
72
71
74
78
80
81
64
114
28
33
34
104
32
36
39
38
40
37
35
30
25
102
111
21
26
43
45
46
49
52
51
53
50
48
106
-1
EOF
